##------CONJUNTOS
set D := D1 D2 D3 D4;
set K := 1 2;

set I := F1 F2 F3 F4 F5 F6 F7 F8 F9 F10 F11 F12 F13 F14 F15 F16;

# F1 -> Excel 1113, Comuna 11
# F2 -> Excel 1117, Comuna 11
# F3 -> Excel 1106, Comuna 11
# F4 -> Excel 1114, Comuna 11
# F5 -> Excel 1313, Comuna 13
# F6 -> Excel 1309, Comuna 13
# F7 -> Excel 1301, Comuna 13
# F8 -> Excel 1310, Comuna 13
# F9 -> Excel 2297, Comuna 22
# F10 -> Excel 2201, Comuna 22
# F11 -> Excel 2296, Comuna 22
# F12 -> Excel 2298, Comuna 22
# F13 -> Excel 1601, Comuna 16
# F14 -> Excel 1696, Comuna 16
# F15 -> Excel 1698, Comuna 16
# F16 -> Excel 1697, Comuna 16

# Clústeres
set C := C1 C2 C3 C4;
set IC[C1] := F1 F2 F3 F4;
set IC[C2] := F5 F6 F7 F8;
set IC[C3] := F9 F10 F11 F12;
set IC[C4] := F13 F14 F15 F16;

# Número de vehículos por tipo y depósito
set R[D1,1] := V1 V2 V3 V4;
set R[D1,2] := K1 K2;
set R[D2,1] := V5 V6 V7 V8;
set R[D2,2] := K3;
set R[D3,1] := V9 V10 V11 V12;
set R[D3,2] := K4;
set R[D4,1] := V13 V14 V15 V16;
set R[D4,2] := K5 K6;

##------PARAMETROS GLOBALES
param Vel := 25;

##------CAPACIDAD DE VEHÍCULOS (agentes que pueden transportar)
param q :=
1 5
2 10
;

##------POLICÍAS DISPONIBLES en cada depósito
param h :=
D1 40
D2 30
D3 30
D4 40
;

##------VEHÍCULOS DISPONIBLES por tipo y depósito
param v:
	1	2 :=
D1	4	2
D2	4	1
D3	4	1
D4	4	2
;

##-----DISTANCIAS ENTRE NODOS [km]
param dist:
	F1	F2	F3	F4	F5	F6	F7	F8	F9	F10	F11	F12	F13	F14	F15	F16	D1	D2	D3	D4 :=
F1	0	1.31	1.91	2.59	5.32	4.66	5.05	4.71	8.48	7.57	11.92	8.15	3.17	4.61	3.81	4.69	4.46	8.42	5.87	4.74
F2	1.31	0	2.13	2.91	4.97	4.32	4.72	4.36	8.68	7.82	12.17	8.42	3.43	4.77	4.06	4.88	4.55	8.18	6.23	4.38
F3	1.91	2.13	0	2.9	5.62	4.91	5.26	5.06	9.0	7.94	12.23	8.44	3.64	5.27	4.26	5.29	3.55	8.18	5.3	5.38
F4	2.59	2.91	2.9	0	6.92	6.28	6.68	6.3	7.05	6.0	10.32	6.54	1.72	3.43	2.31	3.39	5.32	10.02	4.87	6.1
F5	5.32	4.97	5.62	6.92	0	1.67	1.5	1.57	12.14	11.56	15.91	12.26	7.33	8.25	7.91	8.47	6.28	5.23	9.95	2.8
F6	4.66	4.32	4.91	6.28	1.67	0	1.37	1.36	11.67	11.02	15.38	11.69	6.73	7.75	7.33	7.95	5.61	5.39	9.24	2.83
F7	5.05	4.72	5.26	6.68	1.5	1.37	0	1.63	12.1	11.44	15.81	12.12	7.15	8.18	7.75	8.37	5.76	5.0	9.56	3.11
F8	4.71	4.36	5.06	6.3	1.57	1.36	1.63	0	11.53	10.93	15.29	11.63	6.71	7.64	7.29	7.84	5.94	5.68	9.41	2.44
F9	8.48	8.68	9.0	7.05	12.14	11.67	12.1	11.53	0	2.51	4.95	2.99	6.31	4.89	5.68	4.75	11.33	15.88	8.44	10.65
F10	7.57	7.82	7.94	6.0	11.56	11.02	11.44	10.93	2.51	0	5.31	1.82	5.34	4.3	4.71	4.05	10.11	15.04	6.91	10.23
F11	11.92	12.17	12.23	10.32	15.91	15.38	15.81	15.29	4.95	5.31	0	4.73	9.69	8.61	9.06	8.39	14.2	19.39	10.23	14.53
F12	8.15	8.42	8.44	6.54	12.26	11.69	12.12	11.63	2.99	1.82	4.73	0	5.94	5.08	5.32	4.8	10.46	15.62	6.87	11.0
F13	3.17	3.43	3.64	1.72	7.33	6.73	7.15	6.71	6.31	5.34	9.69	5.94	0	2.67	1.58	2.62	6.09	10.65	5.21	6.32
F14	4.61	4.77	5.27	3.43	8.25	7.75	8.18	7.64	4.89	4.3	8.61	5.08	2.67	0	2.22	1.29	7.8	11.95	6.48	6.88
F15	3.81	4.06	4.26	2.31	7.91	7.33	7.75	7.29	5.68	4.71	9.06	5.32	1.58	2.22	0	2.08	6.67	11.28	5.28	6.81
F16	4.69	4.88	5.29	3.39	8.47	7.95	8.37	7.84	4.75	4.05	8.39	4.8	2.62	1.29	2.08	0	7.76	12.09	6.21	7.14
D1	4.46	4.55	3.55	5.32	6.28	5.61	5.76	5.94	11.33	10.11	14.2	10.46	6.09	7.8	6.67	7.76	0	7.09	5.73	6.9
D2	8.42	8.18	8.18	10.02	5.23	5.39	5.0	5.68	15.88	15.04	19.39	15.62	10.65	11.95	11.28	12.09	7.09	0	11.82	7.08
D3	5.87	6.23	5.3	4.87	9.95	9.24	9.56	9.41	8.44	6.91	10.23	6.87	5.21	6.48	5.28	6.21	5.73	11.82	0	9.66
D4	4.74	4.38	5.38	6.1	2.8	2.83	3.11	2.44	10.65	10.23	14.53	11.0	6.32	6.88	6.81	7.14	6.9	7.08	9.66	0
;

#### DEMANDA DE POLICÍAS (por nodo i)
param dem :=
F1 50
F2 125
F3 50
F4 100
F5 125
F6 75
F7 75
F8 25
F9 75
F10 100
F11 25
F12 100
F13 100
F14 100
F15 75
F16 100
;

#### DEMANDA DE VEHÍCULOS (por tipo)
param mu:
    1   2 :=
 F1  0  2
 F2  0  3
 F3  0  1
 F4  0  3
 F5  0  3
 F6  0  1
 F7  0  1
 F8  0  1
 F9  0  1
 F10  0  3
 F11  0  1
 F12  0  3
 F13  0  2
 F14  0  3
 F15  0  2
 F16  0  3
;

#### TIEMPOS DE SERVICIO [horas]
param s :=
F1 0.86
F2 1.78
F3 0.82
F4 1.91
F5 2.45
F6 1.05
F7 1.21
F8 0.50
F9 1.50
F10 1.50
F11 0.49
F12 1.48
F13 1.66
F14 1.48
F15 1.37
F16 1.41
;

#### VENTANAS DE TIEMPO [horas]
param alpha :=
F1 10
F2 11
F3 13
F4 14
F5 11
F6 11
F7 8
F8 13
F9 6
F10 6
F11 9
F12 12
F13 8
F14 9
F15 14
F16 6
;

param beta :=
F1 20
F2 17
F3 18
F4 18
F5 20
F6 17
F7 18
F8 19
F9 16
F10 16
F11 14
F12 22
F13 13
F14 13
F15 24
F16 12
;

#### PRIORIDAD DE LOS NODOS
param P :=
F1 0.387
F2 0.336
F3 0.258
F4 0.237
F5 0.592
F6 0.578
F7 0.490
F8 0.514
F9 0.225
F10 0.125
F11 0.119
F12 0.144
F13 0.432
F14 0.188
F15 0.367
F16 0.201
;

